9   18   6
6   3   1   25   2   25   3   25   3   4   29   5   29   6   29   3   7   24   8   24   9   24   3   10   28   11   28   12   28   3   13   18   14   18   15   18   3   16   23   17   23   18   23   
6   3   1   25   2   25   3   25   3   4   15   5   15   6   15   3   7   10   8   10   9   10   3   10   26   11   26   12   26   3   13   19   14   19   15   19   3   16   14   17   14   18   14   
6   3   1   17   2   17   3   17   3   4   24   5   24   6   24   3   7   24   8   24   9   24   3   10   22   11   22   12   22   3   13   24   14   24   15   24   3   16   24   17   24   18   24   
6   3   1   18   2   18   3   18   3   4   23   5   23   6   23   3   7   17   8   17   9   17   3   10   23   11   23   12   23   3   13   24   14   24   15   24   3   16   24   17   24   18   24   
6   3   1   16   2   16   3   16   3   4   19   5   19   6   19   3   7   10   8   10   9   10   3   10   12   11   12   12   12   3   13   20   14   20   15   20   3   16   27   17   27   18   27   
6   3   1   22   2   22   3   22   3   4   14   5   14   6   14   3   7   15   8   15   9   15   3   10   14   11   14   12   14   3   13   22   14   22   15   22   3   16   22   17   22   18   22   
6   3   1   17   2   17   3   17   3   4   11   5   11   6   11   3   7   10   8   10   9   10   3   10   17   11   17   12   17   3   13   23   14   23   15   23   3   16   29   17   29   18   29   
6   3   1   11   2   11   3   11   3   4   26   5   26   6   26   3   7   15   8   15   9   15   3   10   16   11   16   12   16   3   13   14   14   14   15   14   3   16   16   17   16   18   16   
6   3   1   25   2   25   3   25   3   4   20   5   20   6   20   3   7   17   8   17   9   17   3   10   21   11   21   12   21   3   13   10   14   10   15   10   3   16   14   17   14   18   14   
